rc1_10_1

VEHICLE
NUMBER   CAPACITY
250     200

CUSTOMER
CUST NO. XCOORD.  YCOORD.  DEMAND  READY TIME DUE DATE  SERVICE TIME

0   250    250     0     0    1821     0
879 53 204 8 1055 1085 10
919 61 214 4 342 372 10
80 34 169 11 484 514 10
832 46 163 8 926 956 10
995 18 225 8 691 721 10
305 111 178 18 156 186 10
313 30 155 9 1280 1310 10
28 80 117 24 824 854 10
43 111 192 11 1199 1229 10
510 21 146 21 487 517 10
462 43 135 31 236 266 10
970 13 214 21 1354 1384 10
254 75 118 21 409 439 10
425 103 177 28 626 656 10
748 44 115 24 246 276 10
536 105 181 19 1531 1561 10
772 89 185 16 600 630 10
438 1 101 8 1257 1287 10
614 39 162 18 565 595 10
177 7 194 29 951 981 10
786 47 208 30 226 256 10
27 130 140 17 194 224 10
127 0 188 26 932 962 10
566 68 160 21 1136 1166 10
50 86 199 23 278 308 10
694 31 175 24 247 277 10
688 57 183 15 1100 1130 10
